-342.0 6.0 8.0 10.0 3.0 3.0 4.0 7.0 9.0 7.0 8.0 9.0 8.0 2.0 10.0 6.0 7.0 3.0 3.0 10.0 4.0 7.0 7.0 3.0 4.0 4.0 4.0 10.0 6.0 4.0 9.0 10.0 1.0 6.0 10.0 4.0 1.0 3.0 9.0 4.0 5.0 4.0 9.0 2.0 6.0 1.0 6.0 1.0 5.0 8.0 2.0 10.0 5.0 7.0 1.0 5.0 7.0 3.0 6.0 9.0 7.0 0.0 
6.0 -266.0 5.0 4.0 9.0 4.0 1.0 2.0 2.0 2.0 5.0 1.0 1.0 4.0 3.0 2.0 7.0 1.0 5.0 10.0 3.0 1.0 4.0 1.0 3.0 10.0 10.0 4.0 5.0 2.0 9.0 10.0 6.0 1.0 3.0 8.0 2.0 2.0 7.0 6.0 2.0 6.0 5.0 8.0 5.0 10.0 5.0 4.0 5.0 6.0 1.0 6.0 3.0 6.0 10.0 6.0 7.0 0.0 0.0 0.0 0.0 0.0 
8.0 5.0 -288.0 3.0 10.0 1.0 8.0 4.0 0.0 2.0 10.0 8.0 7.0 0.0 7.0 8.0 3.0 8.0 8.0 10.0 1.0 0.0 5.0 10.0 3.0 5.0 9.0 6.0 0.0 7.0 1.0 3.0 5.0 5.0 5.0 4.0 1.0 0.0 8.0 3.0 1.0 9.0 3.0 7.0 6.0 2.0 2.0 4.0 3.0 8.0 5.0 2.0 0.0 9.0 6.0 5.0 8.0 3.0 5.0 6.0 3.0 0.0 
10.0 4.0 3.0 -299.0 5.0 9.0 6.0 4.0 3.0 4.0 2.0 1.0 1.0 5.0 7.0 4.0 1.0 1.0 2.0 1.0 10.0 6.0 4.0 9.0 8.0 2.0 0.0 5.0 3.0 5.0 4.0 10.0 2.0 6.0 0.0 7.0 10.0 2.0 3.0 7.0 3.0 5.0 3.0 7.0 7.0 6.0 4.0 9.0 8.0 5.0 9.0 2.0 10.0 9.0 9.0 0.0 4.0 8.0 8.0 6.0 0.0 1.0 
3.0 9.0 10.0 5.0 -350.0 7.0 2.0 9.0 8.0 8.0 7.0 1.0 10.0 0.0 6.0 7.0 1.0 9.0 5.0 1.0 10.0 8.0 5.0 8.0 9.0 7.0 1.0 8.0 7.0 9.0 8.0 1.0 7.0 2.0 10.0 4.0 10.0 1.0 3.0 4.0 3.0 0.0 10.0 8.0 8.0 9.0 0.0 8.0 3.0 8.0 6.0 1.0 6.0 8.0 10.0 1.0 7.0 6.0 1.0 8.0 8.0 1.0 
3.0 4.0 1.0 9.0 7.0 -333.0 0.0 1.0 7.0 5.0 7.0 0.0 10.0 9.0 9.0 9.0 7.0 6.0 10.0 1.0 0.0 8.0 10.0 3.0 4.0 8.0 6.0 3.0 10.0 1.0 8.0 3.0 0.0 6.0 4.0 9.0 1.0 2.0 10.0 2.0 4.0 10.0 7.0 8.0 3.0 8.0 8.0 4.0 6.0 10.0 10.0 3.0 4.0 2.0 9.0 8.0 0.0 3.0 2.0 3.0 8.0 10.0 
4.0 1.0 8.0 6.0 2.0 0.0 -294.0 8.0 9.0 6.0 8.0 7.0 2.0 5.0 1.0 0.0 6.0 5.0 3.0 1.0 3.0 2.0 10.0 7.0 0.0 9.0 8.0 4.0 1.0 1.0 0.0 10.0 0.0 4.0 4.0 10.0 9.0 4.0 9.0 7.0 7.0 1.0 2.0 4.0 4.0 7.0 2.0 9.0 0.0 0.0 6.0 10.0 6.0 0.0 4.0 7.0 10.0 4.0 8.0 10.0 9.0 0.0 
7.0 2.0 4.0 4.0 9.0 1.0 8.0 -291.0 5.0 0.0 0.0 2.0 4.0 5.0 2.0 9.0 3.0 6.0 3.0 8.0 5.0 0.0 2.0 8.0 3.0 6.0 0.0 1.0 7.0 8.0 7.0 5.0 2.0 1.0 2.0 4.0 2.0 7.0 0.0 9.0 3.0 9.0 5.0 7.0 10.0 5.0 8.0 4.0 4.0 7.0 3.0 6.0 0.0 10.0 4.0 7.0 9.0 4.0 5.0 5.0 5.0 10.0 
9.0 2.0 0.0 3.0 8.0 7.0 9.0 5.0 -286.0 3.0 9.0 10.0 9.0 8.0 9.0 3.0 9.0 7.0 3.0 4.0 0.0 0.0 4.0 8.0 2.0 0.0 9.0 0.0 7.0 7.0 9.0 1.0 7.0 5.0 2.0 1.0 0.0 4.0 7.0 7.0 10.0 8.0 1.0 0.0 1.0 4.0 0.0 4.0 3.0 3.0 0.0 7.0 10.0 1.0 4.0 4.0 3.0 1.0 7.0 9.0 1.0 8.0 
7.0 2.0 2.0 4.0 8.0 5.0 6.0 0.0 3.0 -326.0 5.0 9.0 10.0 2.0 10.0 0.0 2.0 3.0 1.0 0.0 8.0 9.0 9.0 7.0 3.0 4.0 6.0 5.0 8.0 2.0 7.0 7.0 1.0 8.0 6.0 10.0 10.0 7.0 6.0 2.0 1.0 7.0 6.0 10.0 8.0 8.0 5.0 9.0 2.0 0.0 10.0 8.0 9.0 6.0 3.0 10.0 6.0 4.0 1.0 4.0 2.0 3.0 
8.0 5.0 10.0 2.0 7.0 7.0 8.0 0.0 9.0 5.0 -336.0 0.0 4.0 2.0 5.0 7.0 10.0 3.0 7.0 8.0 2.0 3.0 5.0 10.0 6.0 9.0 9.0 5.0 7.0 9.0 0.0 5.0 4.0 0.0 9.0 7.0 0.0 1.0 0.0 4.0 8.0 10.0 10.0 3.0 3.0 4.0 5.0 7.0 4.0 5.0 10.0 6.0 6.0 7.0 0.0 10.0 7.0 7.0 1.0 10.0 6.0 5.0 
9.0 1.0 8.0 1.0 1.0 0.0 7.0 2.0 10.0 9.0 0.0 -269.0 10.0 2.0 1.0 2.0 9.0 6.0 3.0 9.0 2.0 7.0 1.0 9.0 3.0 0.0 4.0 3.0 1.0 2.0 2.0 6.0 9.0 2.0 3.0 9.0 1.0 8.0 2.0 2.0 7.0 5.0 4.0 2.0 0.0 9.0 7.0 4.0 7.0 2.0 1.0 3.0 0.0 0.0 1.0 9.0 9.0 7.0 4.0 8.0 10.0 4.0 
8.0 1.0 7.0 1.0 10.0 10.0 2.0 4.0 9.0 10.0 4.0 10.0 -318.0 3.0 7.0 8.0 4.0 5.0 0.0 6.0 2.0 0.0 8.0 0.0 0.0 4.0 10.0 5.0 4.0 6.0 2.0 6.0 9.0 10.0 9.0 2.0 6.0 10.0 2.0 4.0 1.0 7.0 1.0 9.0 4.0 4.0 7.0 3.0 3.0 10.0 2.0 6.0 7.0 0.0 1.0 6.0 3.0 8.0 9.0 2.0 8.0 9.0 
2.0 4.0 0.0 5.0 0.0 9.0 5.0 5.0 8.0 2.0 2.0 2.0 3.0 -308.0 6.0 6.0 6.0 3.0 10.0 7.0 1.0 7.0 2.0 1.0 8.0 10.0 2.0 6.0 1.0 10.0 2.0 5.0 2.0 2.0 8.0 8.0 10.0 2.0 5.0 4.0 0.0 5.0 9.0 6.0 0.0 3.0 4.0 5.0 1.0 9.0 4.0 8.0 6.0 9.0 6.0 10.0 7.0 8.0 5.0 10.0 2.0 10.0 
10.0 3.0 7.0 7.0 6.0 9.0 1.0 2.0 9.0 10.0 5.0 1.0 7.0 6.0 -287.0 5.0 4.0 6.0 8.0 6.0 0.0 2.0 0.0 6.0 7.0 6.0 3.0 9.0 7.0 7.0 4.0 7.0 4.0 4.0 10.0 7.0 1.0 3.0 2.0 4.0 3.0 7.0 7.0 1.0 0.0 0.0 1.0 0.0 1.0 3.0 9.0 5.0 8.0 10.0 7.0 3.0 8.0 0.0 4.0 2.0 3.0 0.0 
6.0 2.0 8.0 4.0 7.0 9.0 0.0 9.0 3.0 0.0 7.0 2.0 8.0 6.0 5.0 -302.0 3.0 0.0 8.0 9.0 2.0 3.0 5.0 8.0 2.0 1.0 1.0 0.0 6.0 4.0 9.0 8.0 7.0 10.0 3.0 8.0 4.0 2.0 0.0 5.0 8.0 3.0 5.0 4.0 2.0 4.0 2.0 5.0 8.0 6.0 5.0 8.0 4.0 10.0 2.0 10.0 4.0 3.0 10.0 0.0 9.0 6.0 
7.0 7.0 3.0 1.0 1.0 7.0 6.0 3.0 9.0 2.0 10.0 9.0 4.0 6.0 4.0 3.0 -322.0 5.0 3.0 1.0 9.0 5.0 1.0 10.0 3.0 7.0 4.0 8.0 4.0 0.0 7.0 4.0 9.0 9.0 4.0 3.0 1.0 5.0 10.0 6.0 10.0 5.0 9.0 9.0 5.0 9.0 6.0 5.0 3.0 7.0 7.0 0.0 9.0 4.0 2.0 0.0 3.0 3.0 2.0 8.0 6.0 10.0 
3.0 1.0 8.0 1.0 9.0 6.0 5.0 6.0 7.0 3.0 3.0 6.0 5.0 3.0 6.0 0.0 5.0 -292.0 0.0 2.0 2.0 3.0 2.0 8.0 6.0 10.0 1.0 1.0 9.0 9.0 0.0 4.0 4.0 8.0 7.0 3.0 9.0 6.0 0.0 8.0 8.0 10.0 1.0 5.0 6.0 9.0 4.0 1.0 3.0 7.0 2.0 3.0 5.0 9.0 9.0 2.0 7.0 0.0 2.0 8.0 8.0 4.0 
3.0 5.0 8.0 2.0 5.0 10.0 3.0 3.0 3.0 1.0 7.0 3.0 0.0 10.0 8.0 8.0 3.0 0.0 -266.0 0.0 10.0 3.0 1.0 10.0 1.0 1.0 5.0 8.0 4.0 8.0 6.0 9.0 2.0 8.0 6.0 3.0 1.0 1.0 7.0 3.0 0.0 5.0 5.0 1.0 4.0 3.0 8.0 8.0 7.0 3.0 6.0 0.0 2.0 9.0 0.0 1.0 0.0 8.0 4.0 2.0 8.0 3.0 
10.0 10.0 10.0 1.0 1.0 1.0 1.0 8.0 4.0 0.0 8.0 9.0 6.0 7.0 6.0 9.0 1.0 2.0 0.0 -282.0 2.0 8.0 1.0 6.0 0.0 0.0 4.0 8.0 3.0 9.0 6.0 4.0 1.0 8.0 9.0 3.0 5.0 7.0 6.0 0.0 4.0 7.0 4.0 2.0 2.0 0.0 2.0 9.0 3.0 9.0 3.0 2.0 7.0 10.0 9.0 1.0 1.0 1.0 10.0 3.0 8.0 1.0 
4.0 3.0 1.0 10.0 10.0 0.0 3.0 5.0 0.0 8.0 2.0 2.0 2.0 1.0 0.0 2.0 9.0 2.0 10.0 2.0 -276.0 8.0 1.0 0.0 6.0 10.0 9.0 2.0 1.0 0.0 0.0 7.0 6.0 7.0 3.0 5.0 3.0 4.0 10.0 2.0 3.0 5.0 4.0 0.0 6.0 5.0 9.0 10.0 5.0 10.0 5.0 10.0 6.0 2.0 6.0 2.0 1.0 0.0 0.0 7.0 10.0 10.0 
7.0 1.0 0.0 6.0 8.0 8.0 2.0 0.0 0.0 9.0 3.0 7.0 0.0 7.0 2.0 3.0 5.0 3.0 3.0 8.0 8.0 -266.0 6.0 2.0 6.0 2.0 5.0 1.0 0.0 3.0 4.0 10.0 1.0 5.0 5.0 1.0 2.0 7.0 4.0 2.0 5.0 2.0 6.0 2.0 8.0 1.0 5.0 0.0 9.0 5.0 3.0 9.0 4.0 9.0 7.0 7.0 7.0 6.0 0.0 7.0 1.0 7.0 
7.0 4.0 5.0 4.0 5.0 10.0 10.0 2.0 4.0 9.0 5.0 1.0 8.0 2.0 0.0 5.0 1.0 2.0 1.0 1.0 1.0 6.0 -266.0 3.0 8.0 8.0 6.0 7.0 7.0 0.0 2.0 3.0 5.0 8.0 6.0 4.0 5.0 5.0 0.0 6.0 1.0 7.0 1.0 1.0 10.0 10.0 1.0 4.0 3.0 0.0 4.0 3.0 7.0 6.0 4.0 4.0 1.0 7.0 3.0 8.0 3.0 2.0 
3.0 1.0 10.0 9.0 8.0 3.0 7.0 8.0 8.0 7.0 10.0 9.0 0.0 1.0 6.0 8.0 10.0 8.0 10.0 6.0 0.0 2.0 3.0 -351.0 3.0 9.0 6.0 10.0 7.0 9.0 10.0 3.0 10.0 5.0 1.0 5.0 6.0 7.0 4.0 6.0 5.0 6.0 3.0 9.0 4.0 0.0 0.0 7.0 10.0 2.0 1.0 3.0 1.0 8.0 6.0 9.0 2.0 8.0 1.0 10.0 9.0 9.0 
4.0 3.0 3.0 8.0 9.0 4.0 0.0 3.0 2.0 3.0 6.0 3.0 0.0 8.0 7.0 2.0 3.0 6.0 1.0 0.0 6.0 6.0 8.0 3.0 -304.0 1.0 10.0 10.0 10.0 7.0 9.0 10.0 5.0 7.0 10.0 3.0 3.0 8.0 8.0 0.0 1.0 8.0 6.0 1.0 9.0 7.0 6.0 7.0 10.0 5.0 0.0 0.0 8.0 2.0 1.0 9.0 3.0 5.0 4.0 9.0 4.0 0.0 
4.0 10.0 5.0 2.0 7.0 8.0 9.0 6.0 0.0 4.0 9.0 0.0 4.0 10.0 6.0 1.0 7.0 10.0 1.0 0.0 10.0 2.0 8.0 9.0 1.0 -303.0 5.0 8.0 1.0 4.0 3.0 4.0 4.0 3.0 8.0 0.0 8.0 2.0 5.0 8.0 1.0 5.0 4.0 1.0 2.0 10.0 0.0 7.0 10.0 6.0 5.0 9.0 4.0 8.0 5.0 0.0 6.0 6.0 1.0 5.0 2.0 10.0 
4.0 10.0 9.0 0.0 1.0 6.0 8.0 0.0 9.0 6.0 9.0 4.0 10.0 2.0 3.0 1.0 4.0 1.0 5.0 4.0 9.0 5.0 6.0 6.0 10.0 5.0 -278.0 3.0 1.0 0.0 8.0 10.0 2.0 1.0 0.0 0.0 0.0 3.0 10.0 6.0 2.0 6.0 3.0 7.0 8.0 3.0 1.0 1.0 7.0 3.0 4.0 8.0 3.0 2.0 6.0 10.0 10.0 1.0 7.0 3.0 1.0 1.0 
10.0 4.0 6.0 5.0 8.0 3.0 4.0 1.0 0.0 5.0 5.0 3.0 5.0 6.0 9.0 0.0 8.0 1.0 8.0 8.0 2.0 1.0 7.0 10.0 10.0 8.0 3.0 -309.0 8.0 5.0 1.0 8.0 5.0 8.0 2.0 5.0 7.0 2.0 5.0 6.0 2.0 3.0 9.0 6.0 3.0 6.0 4.0 0.0 8.0 3.0 1.0 4.0 10.0 10.0 2.0 3.0 1.0 5.0 9.0 9.0 1.0 8.0 
6.0 5.0 0.0 3.0 7.0 10.0 1.0 7.0 7.0 8.0 7.0 1.0 4.0 1.0 7.0 6.0 4.0 9.0 4.0 3.0 1.0 0.0 7.0 7.0 10.0 1.0 1.0 8.0 -324.0 10.0 3.0 4.0 8.0 10.0 9.0 7.0 2.0 10.0 0.0 7.0 7.0 4.0 5.0 2.0 10.0 9.0 1.0 8.0 9.0 1.0 1.0 0.0 2.0 7.0 7.0 7.0 7.0 10.0 4.0 7.0 8.0 3.0 
4.0 2.0 7.0 5.0 9.0 1.0 1.0 8.0 7.0 2.0 9.0 2.0 6.0 10.0 7.0 4.0 0.0 9.0 8.0 9.0 0.0 3.0 0.0 9.0 7.0 4.0 0.0 5.0 10.0 -299.0 4.0 0.0 2.0 6.0 2.0 3.0 0.0 2.0 6.0 8.0 10.0 6.0 3.0 7.0 7.0 1.0 7.0 8.0 0.0 7.0 10.0 6.0 1.0 10.0 9.0 2.0 1.0 3.0 9.0 3.0 0.0 8.0 
9.0 9.0 1.0 4.0 8.0 8.0 0.0 7.0 9.0 7.0 0.0 2.0 2.0 2.0 4.0 9.0 7.0 0.0 6.0 6.0 0.0 4.0 2.0 10.0 9.0 3.0 8.0 1.0 3.0 4.0 -314.0 2.0 9.0 8.0 6.0 1.0 7.0 8.0 3.0 4.0 7.0 6.0 1.0 3.0 9.0 6.0 2.0 9.0 5.0 6.0 6.0 6.0 3.0 3.0 7.0 9.0 8.0 1.0 6.0 10.0 5.0 4.0 
10.0 10.0 3.0 10.0 1.0 3.0 10.0 5.0 1.0 7.0 5.0 6.0 6.0 5.0 7.0 8.0 4.0 4.0 9.0 4.0 7.0 10.0 3.0 3.0 10.0 4.0 10.0 8.0 4.0 0.0 2.0 -353.0 6.0 5.0 10.0 0.0 5.0 2.0 3.0 6.0 7.0 10.0 7.0 5.0 10.0 10.0 7.0 5.0 0.0 1.0 10.0 6.0 1.0 10.0 0.0 10.0 8.0 1.0 8.0 8.0 7.0 6.0 
1.0 6.0 5.0 2.0 7.0 0.0 0.0 2.0 7.0 1.0 4.0 9.0 9.0 2.0 4.0 7.0 9.0 4.0 2.0 1.0 6.0 1.0 5.0 10.0 5.0 4.0 2.0 5.0 8.0 2.0 9.0 6.0 -304.0 8.0 7.0 6.0 1.0 5.0 1.0 8.0 7.0 7.0 5.0 6.0 9.0 6.0 6.0 3.0 9.0 10.0 7.0 6.0 4.0 0.0 4.0 8.0 1.0 5.0 0.0 8.0 6.0 6.0 
6.0 1.0 5.0 6.0 2.0 6.0 4.0 1.0 5.0 8.0 0.0 2.0 10.0 2.0 4.0 10.0 9.0 8.0 8.0 8.0 7.0 5.0 8.0 5.0 7.0 3.0 1.0 8.0 10.0 6.0 8.0 5.0 8.0 -331.0 10.0 7.0 9.0 6.0 8.0 0.0 1.0 8.0 5.0 2.0 1.0 6.0 5.0 0.0 5.0 1.0 6.0 3.0 10.0 1.0 2.0 9.0 7.0 7.0 1.0 10.0 7.0 8.0 
10.0 3.0 5.0 0.0 10.0 4.0 4.0 2.0 2.0 6.0 9.0 3.0 9.0 8.0 10.0 3.0 4.0 7.0 6.0 9.0 3.0 5.0 6.0 1.0 10.0 8.0 0.0 2.0 9.0 2.0 6.0 10.0 7.0 10.0 -332.0 5.0 10.0 5.0 4.0 4.0 5.0 10.0 4.0 8.0 9.0 0.0 6.0 8.0 3.0 5.0 6.0 3.0 2.0 5.0 6.0 3.0 6.0 5.0 8.0 3.0 0.0 6.0 
4.0 8.0 4.0 7.0 4.0 9.0 10.0 4.0 1.0 10.0 7.0 9.0 2.0 8.0 7.0 8.0 3.0 3.0 3.0 3.0 5.0 1.0 4.0 5.0 3.0 0.0 0.0 5.0 7.0 3.0 1.0 0.0 6.0 7.0 5.0 -273.0 2.0 1.0 10.0 7.0 0.0 2.0 4.0 5.0 1.0 0.0 6.0 3.0 3.0 5.0 3.0 2.0 3.0 1.0 9.0 3.0 8.0 9.0 2.0 8.0 10.0 0.0 
1.0 2.0 1.0 10.0 10.0 1.0 9.0 2.0 0.0 10.0 0.0 1.0 6.0 10.0 1.0 4.0 1.0 9.0 1.0 5.0 3.0 2.0 5.0 6.0 3.0 8.0 0.0 7.0 2.0 0.0 7.0 5.0 1.0 9.0 10.0 2.0 -272.0 8.0 3.0 5.0 1.0 4.0 2.0 4.0 8.0 8.0 8.0 3.0 4.0 6.0 3.0 6.0 9.0 9.0 0.0 6.0 1.0 1.0 4.0 9.0 5.0 1.0 
3.0 2.0 0.0 2.0 1.0 2.0 4.0 7.0 4.0 7.0 1.0 8.0 10.0 2.0 3.0 2.0 5.0 6.0 1.0 7.0 4.0 7.0 5.0 7.0 8.0 2.0 3.0 2.0 10.0 2.0 8.0 2.0 5.0 6.0 5.0 1.0 8.0 -265.0 1.0 6.0 2.0 4.0 0.0 5.0 8.0 2.0 1.0 5.0 2.0 8.0 6.0 9.0 1.0 3.0 3.0 2.0 8.0 3.0 7.0 5.0 4.0 8.0 
9.0 7.0 8.0 3.0 3.0 10.0 9.0 0.0 7.0 6.0 0.0 2.0 2.0 5.0 2.0 0.0 10.0 0.0 7.0 6.0 10.0 4.0 0.0 4.0 8.0 5.0 10.0 5.0 0.0 6.0 3.0 3.0 1.0 8.0 4.0 10.0 3.0 1.0 -286.0 1.0 4.0 1.0 10.0 3.0 3.0 4.0 1.0 10.0 4.0 4.0 2.0 6.0 10.0 0.0 6.0 9.0 3.0 3.0 9.0 1.0 10.0 1.0 
4.0 6.0 3.0 7.0 4.0 2.0 7.0 9.0 7.0 2.0 4.0 2.0 4.0 4.0 4.0 5.0 6.0 8.0 3.0 0.0 2.0 2.0 6.0 6.0 0.0 8.0 6.0 6.0 7.0 8.0 4.0 6.0 8.0 0.0 4.0 7.0 5.0 6.0 1.0 -328.0 2.0 8.0 10.0 0.0 9.0 10.0 4.0 5.0 7.0 3.0 10.0 8.0 4.0 6.0 7.0 6.0 9.0 7.0 6.0 6.0 9.0 9.0 
5.0 2.0 1.0 3.0 3.0 4.0 7.0 3.0 10.0 1.0 8.0 7.0 1.0 0.0 3.0 8.0 10.0 8.0 0.0 4.0 3.0 5.0 1.0 5.0 1.0 1.0 2.0 2.0 7.0 10.0 7.0 7.0 7.0 1.0 5.0 0.0 1.0 2.0 4.0 2.0 -249.0 2.0 7.0 5.0 6.0 5.0 7.0 8.0 0.0 1.0 6.0 3.0 0.0 5.0 8.0 2.0 6.0 2.0 3.0 5.0 0.0 7.0 
4.0 6.0 9.0 5.0 0.0 10.0 1.0 9.0 8.0 7.0 10.0 5.0 7.0 5.0 7.0 3.0 5.0 10.0 5.0 7.0 5.0 2.0 7.0 6.0 8.0 5.0 6.0 3.0 4.0 6.0 6.0 10.0 7.0 8.0 10.0 2.0 4.0 4.0 1.0 8.0 2.0 -348.0 2.0 5.0 6.0 9.0 4.0 6.0 9.0 4.0 9.0 3.0 5.0 2.0 7.0 7.0 2.0 8.0 4.0 2.0 7.0 10.0 
9.0 5.0 3.0 3.0 10.0 7.0 2.0 5.0 1.0 6.0 10.0 4.0 1.0 9.0 7.0 5.0 9.0 1.0 5.0 4.0 4.0 6.0 1.0 3.0 6.0 4.0 3.0 9.0 5.0 3.0 1.0 7.0 5.0 5.0 4.0 4.0 2.0 0.0 10.0 10.0 7.0 2.0 -308.0 5.0 8.0 5.0 4.0 5.0 1.0 3.0 7.0 3.0 3.0 5.0 10.0 10.0 6.0 5.0 1.0 9.0 7.0 4.0 
2.0 8.0 7.0 7.0 8.0 8.0 4.0 7.0 0.0 10.0 3.0 2.0 9.0 6.0 1.0 4.0 9.0 5.0 1.0 2.0 0.0 2.0 1.0 9.0 1.0 1.0 7.0 6.0 2.0 7.0 3.0 5.0 6.0 2.0 8.0 5.0 4.0 5.0 3.0 0.0 5.0 5.0 5.0 -288.0 0.0 5.0 9.0 9.0 1.0 3.0 2.0 2.0 10.0 0.0 5.0 10.0 2.0 10.0 10.0 7.0 7.0 1.0 
6.0 5.0 6.0 7.0 8.0 3.0 4.0 10.0 1.0 8.0 3.0 0.0 4.0 0.0 0.0 2.0 5.0 6.0 4.0 2.0 6.0 8.0 10.0 4.0 9.0 2.0 8.0 3.0 10.0 7.0 9.0 10.0 9.0 1.0 9.0 1.0 8.0 8.0 3.0 9.0 6.0 6.0 8.0 0.0 -300.0 2.0 6.0 5.0 5.0 3.0 3.0 6.0 8.0 0.0 3.0 3.0 1.0 1.0 4.0 0.0 8.0 4.0 
1.0 10.0 2.0 6.0 9.0 8.0 7.0 5.0 4.0 8.0 4.0 9.0 4.0 3.0 0.0 4.0 9.0 9.0 3.0 0.0 5.0 1.0 10.0 0.0 7.0 10.0 3.0 6.0 9.0 1.0 6.0 10.0 6.0 6.0 0.0 0.0 8.0 2.0 4.0 10.0 5.0 9.0 5.0 5.0 2.0 -317.0 4.0 7.0 10.0 9.0 7.0 4.0 10.0 1.0 3.0 4.0 7.0 3.0 8.0 4.0 0.0 1.0 
6.0 5.0 2.0 4.0 0.0 8.0 2.0 8.0 0.0 5.0 5.0 7.0 7.0 4.0 1.0 2.0 6.0 4.0 8.0 2.0 9.0 5.0 1.0 0.0 6.0 0.0 1.0 4.0 1.0 7.0 2.0 7.0 6.0 5.0 6.0 6.0 8.0 1.0 1.0 4.0 7.0 4.0 4.0 9.0 6.0 4.0 -273.0 3.0 0.0 0.0 1.0 6.0 7.0 9.0 10.0 9.0 8.0 3.0 1.0 3.0 3.0 10.0 
1.0 4.0 4.0 9.0 8.0 4.0 9.0 4.0 4.0 9.0 7.0 4.0 3.0 5.0 0.0 5.0 5.0 1.0 8.0 9.0 10.0 0.0 4.0 7.0 7.0 7.0 1.0 0.0 8.0 8.0 9.0 5.0 3.0 0.0 8.0 3.0 3.0 5.0 10.0 5.0 8.0 6.0 5.0 9.0 5.0 7.0 3.0 -309.0 3.0 1.0 2.0 4.0 1.0 2.0 9.0 8.0 1.0 10.0 4.0 3.0 9.0 3.0 
5.0 5.0 3.0 8.0 3.0 6.0 0.0 4.0 3.0 2.0 4.0 7.0 3.0 1.0 1.0 8.0 3.0 3.0 7.0 3.0 5.0 9.0 3.0 10.0 10.0 10.0 7.0 8.0 9.0 0.0 5.0 0.0 9.0 5.0 3.0 3.0 4.0 2.0 4.0 7.0 0.0 9.0 1.0 1.0 5.0 10.0 0.0 3.0 -285.0 1.0 0.0 6.0 0.0 0.0 10.0 1.0 4.0 10.0 10.0 8.0 7.0 7.0 
8.0 6.0 8.0 5.0 8.0 10.0 0.0 7.0 3.0 0.0 5.0 2.0 10.0 9.0 3.0 6.0 7.0 7.0 3.0 9.0 10.0 5.0 0.0 2.0 5.0 6.0 3.0 3.0 1.0 7.0 6.0 1.0 10.0 1.0 5.0 5.0 6.0 8.0 4.0 3.0 1.0 4.0 3.0 3.0 3.0 9.0 0.0 1.0 1.0 -288.0 5.0 8.0 2.0 2.0 4.0 1.0 8.0 10.0 7.0 1.0 2.0 6.0 
2.0 1.0 5.0 9.0 6.0 10.0 6.0 3.0 0.0 10.0 10.0 1.0 2.0 4.0 9.0 5.0 7.0 2.0 6.0 3.0 5.0 3.0 4.0 1.0 0.0 5.0 4.0 1.0 1.0 10.0 6.0 10.0 7.0 6.0 6.0 3.0 3.0 6.0 2.0 10.0 6.0 9.0 7.0 2.0 3.0 7.0 1.0 2.0 0.0 5.0 -266.0 4.0 10.0 2.0 1.0 4.0 0.0 2.0 0.0 4.0 2.0 1.0 
10.0 6.0 2.0 2.0 1.0 3.0 10.0 6.0 7.0 8.0 6.0 3.0 6.0 8.0 5.0 8.0 0.0 3.0 0.0 2.0 10.0 9.0 3.0 3.0 0.0 9.0 8.0 4.0 0.0 6.0 6.0 6.0 6.0 3.0 3.0 2.0 6.0 9.0 6.0 8.0 3.0 3.0 3.0 2.0 6.0 4.0 6.0 4.0 6.0 8.0 4.0 -295.0 0.0 1.0 10.0 8.0 7.0 7.0 2.0 4.0 1.0 3.0 
5.0 3.0 0.0 10.0 6.0 4.0 6.0 0.0 10.0 9.0 6.0 0.0 7.0 6.0 8.0 4.0 9.0 5.0 2.0 7.0 6.0 4.0 7.0 1.0 8.0 4.0 3.0 10.0 2.0 1.0 3.0 1.0 4.0 10.0 2.0 3.0 9.0 1.0 10.0 4.0 0.0 5.0 3.0 10.0 8.0 10.0 7.0 1.0 0.0 2.0 10.0 0.0 -296.0 2.0 3.0 2.0 5.0 9.0 0.0 8.0 3.0 8.0 
7.0 6.0 9.0 9.0 8.0 2.0 0.0 10.0 1.0 6.0 7.0 0.0 0.0 9.0 10.0 10.0 4.0 9.0 9.0 10.0 2.0 9.0 6.0 8.0 2.0 8.0 2.0 10.0 7.0 10.0 3.0 10.0 0.0 1.0 5.0 1.0 9.0 3.0 0.0 6.0 5.0 2.0 5.0 0.0 0.0 1.0 9.0 2.0 0.0 2.0 2.0 1.0 2.0 -298.0 2.0 1.0 8.0 5.0 0.0 9.0 5.0 9.0 
1.0 10.0 6.0 9.0 10.0 9.0 4.0 4.0 4.0 3.0 0.0 1.0 1.0 6.0 7.0 2.0 2.0 9.0 0.0 9.0 6.0 7.0 4.0 6.0 1.0 5.0 6.0 2.0 7.0 9.0 7.0 0.0 4.0 2.0 6.0 9.0 0.0 3.0 6.0 7.0 8.0 7.0 10.0 5.0 3.0 3.0 10.0 9.0 10.0 4.0 1.0 10.0 3.0 2.0 -326.0 4.0 9.0 10.0 7.0 6.0 1.0 10.0 
5.0 6.0 5.0 0.0 1.0 8.0 7.0 7.0 4.0 10.0 10.0 9.0 6.0 10.0 3.0 10.0 0.0 2.0 1.0 1.0 2.0 7.0 4.0 9.0 9.0 0.0 10.0 3.0 7.0 2.0 9.0 10.0 8.0 9.0 3.0 3.0 6.0 2.0 9.0 6.0 2.0 7.0 10.0 10.0 3.0 4.0 9.0 8.0 1.0 1.0 4.0 8.0 2.0 1.0 4.0 -343.0 8.0 6.0 9.0 10.0 4.0 9.0 
7.0 7.0 8.0 4.0 7.0 0.0 10.0 9.0 3.0 6.0 7.0 9.0 3.0 7.0 8.0 4.0 3.0 7.0 0.0 1.0 1.0 7.0 1.0 2.0 3.0 6.0 10.0 1.0 7.0 1.0 8.0 8.0 1.0 7.0 6.0 8.0 1.0 8.0 3.0 9.0 6.0 2.0 6.0 2.0 1.0 7.0 8.0 1.0 4.0 8.0 0.0 7.0 5.0 8.0 9.0 8.0 -312.0 6.0 10.0 0.0 5.0 1.0 
3.0 0.0 3.0 8.0 6.0 3.0 4.0 4.0 1.0 4.0 7.0 7.0 8.0 8.0 0.0 3.0 3.0 0.0 8.0 1.0 0.0 6.0 7.0 8.0 5.0 6.0 1.0 5.0 10.0 3.0 1.0 1.0 5.0 7.0 5.0 9.0 1.0 3.0 3.0 7.0 2.0 8.0 5.0 10.0 1.0 3.0 3.0 10.0 10.0 10.0 2.0 7.0 9.0 5.0 10.0 6.0 6.0 -307.0 4.0 10.0 4.0 8.0 
6.0 0.0 5.0 8.0 1.0 2.0 8.0 5.0 7.0 1.0 1.0 4.0 9.0 5.0 4.0 10.0 2.0 2.0 4.0 10.0 0.0 0.0 3.0 1.0 4.0 1.0 7.0 9.0 4.0 9.0 6.0 8.0 0.0 1.0 8.0 2.0 4.0 7.0 9.0 6.0 3.0 4.0 1.0 10.0 4.0 8.0 1.0 4.0 10.0 7.0 0.0 2.0 0.0 0.0 7.0 9.0 10.0 4.0 -280.0 6.0 4.0 3.0 
9.0 0.0 6.0 6.0 8.0 3.0 10.0 5.0 9.0 4.0 10.0 8.0 2.0 10.0 2.0 0.0 8.0 8.0 2.0 3.0 7.0 7.0 8.0 10.0 9.0 5.0 3.0 9.0 7.0 3.0 10.0 8.0 8.0 10.0 3.0 8.0 9.0 5.0 1.0 6.0 5.0 2.0 9.0 7.0 0.0 4.0 3.0 3.0 8.0 1.0 4.0 4.0 8.0 9.0 6.0 10.0 0.0 10.0 6.0 -364.0 7.0 9.0 
7.0 0.0 3.0 0.0 8.0 8.0 9.0 5.0 1.0 2.0 6.0 10.0 8.0 2.0 3.0 9.0 6.0 8.0 8.0 8.0 10.0 1.0 3.0 9.0 4.0 2.0 1.0 1.0 8.0 0.0 5.0 7.0 6.0 7.0 0.0 10.0 5.0 4.0 10.0 9.0 0.0 7.0 7.0 7.0 8.0 0.0 3.0 9.0 7.0 2.0 2.0 1.0 3.0 5.0 1.0 4.0 5.0 4.0 4.0 7.0 -301.0 2.0 
0.0 0.0 0.0 1.0 1.0 10.0 0.0 10.0 8.0 3.0 5.0 4.0 9.0 10.0 0.0 6.0 10.0 4.0 3.0 1.0 10.0 7.0 2.0 9.0 0.0 10.0 1.0 8.0 3.0 8.0 4.0 6.0 6.0 8.0 6.0 0.0 1.0 8.0 1.0 9.0 7.0 10.0 4.0 1.0 4.0 1.0 10.0 3.0 7.0 6.0 1.0 3.0 8.0 9.0 10.0 9.0 1.0 8.0 3.0 9.0 2.0 -308.0 

